# GayBerne ellipsoids in LJ background fluid

units	     lj
atom_style   ellipsoid
dimension    3

lattice	     sc 0.8
region	     box block 0 9 0 9 0 9
create_box   2 box
create_atoms 1 box

set	     group all type/fraction 2 0.4 95392
#mass         * 1.0
set 	     type 1 mass 1.1
set 	     type 2 mass 1.1
#set          * mass 1.0
set 	     type 1 shape 1 1 1
set 	     type 2 shape 1.5 1 1
set	     group all quat/random 18238

compute	     rot all temp/asphere
group	     spheroid type 1
variable     dof equal count(spheroid)+2
compute_modify rot extra ${dof}

velocity     all create 2.4 87287 loop geom

pair_style   gayberne 1.0 1.0 2.0 4.0
pair_coeff   1 1 1.0 1.0 1 1 1 1 1 1 2.5
pair_coeff   1 2 0.3 1.0 1 1 1 0.25 1 1
pair_coeff   2 2 0.5 1.0 0.2 1 1 0.2 1 1

neighbor     0.8 bin

thermo_style custom step c_rot epair etotal press vol
thermo	     100

timestep     0.002

#compute	     q all property/atom quatw quati quatj quatk

#dump	     1 all custom 100 dump.ellipse.gayberne &
#	     id type x y z c_q[1] c_q[2] c_q[3] c_q[4]

#dump	     2 all image 100 image.*.jpg type type &
#	     zoom 1.6 center d 0.5 0.5 0.5
#dump_modify  2 pad 4 adiam 1 1.0 adiam 2 2.0

#dump	     3 all movie 100 movie.mpg type type &
#	     zoom 1.6 center d 0.5 0.5 0.5
#dump_modify  3 pad 4 adiam 1 1.0 adiam 2 2.0

#compute      q all property/atom quatw quati quatj quatk
#compute shape all property/atom shapex shapey shapez
#dump         1 all custom 1000 trj.GB &
#              id type x y z c_q[1] c_q[2] c_q[3] c_q[4] &
#              c_shape[1] c_shape[2] c_shape[3]





#fix	     1 all npt/asphere temp 5.0 5.0 0.1 iso 0.0 1.0 1.0 &
#	       mtk no pchain 0 tchain 1
#fix          1 all nvt/asphere temp 5.0 5.0 0.1  &
#               mtk no pchain 0 tchain 1
#fix         1 all nvt/asphere temp 5.0 5.0 0.1  
#fix	     2 all enforce2d

#compute_modify 1_temp extra ${dof}

# equilibrate to shrink box around dilute system

#run	     30000

# run dynamics on dense system
#unfix         1

compute      q all property/atom quatw quati quatj quatk
compute shape all property/atom shapex shapey shapez
dump         1 all custom 10 trj_final.GB &
              id type x y z c_q[1] c_q[2] c_q[3] c_q[4] &
              c_shape[1] c_shape[2] c_shape[3]




fix          1 all nvt/asphere temp 5.0 5.0 0.1  &
               mtk no pchain 0 tchain 1
#fix         1 all nvt/asphere temp 5.0 5.0 0.1  
#fix          2 all enforce2d

compute_modify 1_temp extra ${dof}

# equilibrate to shrink box around dilute system

run          30000

# run dynamics on dense system
unfix         1





#compute      q all property/atom quatw quati quatj quatk
#compute shape all property/atom shapex shapey shapez
#dump         1 all custom 1000 trj.GB &
#              id type x y z c_q[1] c_q[2] c_q[3] c_q[4] &
#              c_shape[1] c_shape[2] c_shape[3]




fix          1 all nvt/asphere temp 0.5 0.5 0.1  &
               mtk no pchain 0 tchain 1
#fix          2 all enforce2d

compute_modify 1_temp extra ${dof}

# equilibrate to shrink box around dilute system

run          70000







unfix	     1

#compute      q all property/atom quatw quati quatj quatk
#compute shape all property/atom shapex shapey shapez
#dump         1 all custom 1000 trj.GB &
#              id type x y z c_q[1] c_q[2] c_q[3] c_q[4] &
#              c_shape[1] c_shape[2] c_shape[3]


fix	     1 all nve/asphere

run	     60000

